35 35
22
3 3 3 10
3 4 0 19
3 5 0 0
3 6 0 13
3 7 32 28
3 8 0 5
3 9 28 0
3 10 3 0
3 12 0 23
3 19 28 9
3 22 3 13
4 3 6 28
4 4 6 31
4 5 31 0
4 6 31 22
4 7 28 28
4 8 6 20
4 12 10 23
4 17 31 5
4 20 6 0
4 23 10 0
14 35 14 0
